SECTION Graph 
Nodes 925
Edges 1738
E 1 359 1
E 1 371 2
E 2 7 1
E 2 381 1
E 3 8 1
E 3 339 1
E 3 355 6
E 4 9 1
E 4 131 2
E 4 390 6
E 4 462 25
E 5 320 3
E 5 325 2
E 5 330 1
E 5 347 8
E 6 355 1
E 7 371 2
E 7 376 1
E 8 132 1
E 8 315 8
E 9 136 2
E 9 338 8
E 9 458 25
E 10 11 2
E 10 865 3
E 10 867 1
E 10 871 9
E 11 866 3
E 11 869 1
E 11 874 9
E 12 871 6
E 13 867 9
E 13 871 1
E 14 869 9
E 14 874 1
E 15 16 2
E 15 485 3
E 15 498 1
E 15 530 8
E 16 497 3
E 16 513 1
E 16 542 8
E 17 546 6
E 17 564 2
E 18 467 15
E 18 525 1
E 18 537 1
E 18 557 6
E 19 137 1
E 19 515 9
E 20 236 5
E 20 244 2
E 20 266 5
E 20 285 10
E 21 285 2
E 21 303 5
E 22 710 6
E 22 731 1
E 22 736 1
E 22 756 5
E 23 756 6
E 23 764 1
E 23 769 1
E 24 731 5
E 24 732 5
E 24 756 1
E 24 764 6
E 25 736 5
E 25 756 1
E 25 770 7
E 26 27 1
E 26 264 5
E 26 284 1
E 26 290 2
E 27 271 5
E 27 289 1
E 27 293 2
E 28 297 10
E 28 319 1
E 28 328 2
E 28 329 2
E 29 243 5
E 29 244 5
E 29 260 1
E 29 266 2
E 30 31 10
E 30 277 2
E 30 278 2
E 30 286 2
E 31 302 2
E 31 313 2
E 31 314 2
E 32 33 1
E 32 213 5
E 32 218 3
E 32 228 2
E 33 214 5
E 33 227 1
E 33 232 2
E 34 234 10
E 34 258 1
E 34 267 1
E 35 206 7
E 35 215 3
E 36 37 10
E 36 218 2
E 36 228 3
E 37 255 3
E 38 698 2
E 38 702 1
E 38 715 1
E 38 748 9
E 39 40 2
E 39 735 6
E 39 759 1
E 39 777 18
E 40 748 6
E 40 778 18
E 41 675 11
E 41 693 9
E 41 735 1
E 41 755 5
E 42 715 9
E 42 748 1
E 42 779 24
E 43 44 10
E 43 856 1
E 43 857 1
E 44 863 1
E 44 877 19
E 45 46 10
E 45 47 1
E 45 851 1
E 45 855 3
E 46 48 1
E 46 862 3
E 46 873 19
E 47 48 10
E 47 848 1
E 47 849 1
E 48 50 1
E 48 872 19
E 49 834 9
E 49 840 5
E 49 848 1
E 49 849 1
E 50 849 10
E 50 852 9
E 50 870 19
E 51 263 17
E 51 308 3
E 51 318 1
E 51 345 12
E 52 318 12
E 52 345 1
E 52 353 1
E 52 385 9
E 53 54 10
E 53 194 3
E 53 203 1
E 53 211 5
E 54 217 1
E 54 230 5
E 54 231 5
E 55 164 4
E 55 173 1
E 55 177 1
E 55 185 3
E 56 185 10
E 56 206 1
E 56 209 1
E 56 215 5
E 57 138 1
E 57 483 4
E 57 508 1
E 57 524 6
E 58 501 14
E 58 518 9
E 58 562 1
E 58 617 10
E 59 524 9
E 59 562 1
E 59 572 1
E 59 626 10
E 60 488 6
E 60 518 1
E 60 610 19
E 61 508 6
E 61 524 1
E 61 535 1
E 61 544 3
E 62 806 11
E 62 825 1
E 62 829 1
E 63 842 3
E 63 843 3
E 63 847 1
E 63 853 5
E 64 808 25
E 64 847 1
E 64 856 5
E 65 204 6
E 65 210 1
E 65 216 3
E 65 237 12
E 66 210 12
E 66 225 5
E 66 237 1
E 66 239 2
E 67 75 1
E 67 751 31
E 67 784 1
E 67 795 10
E 68 720 50
E 68 795 1
E 68 800 1
E 68 858 37
E 69 71 5
E 69 797 1
E 69 802 1
E 69 818 10
E 70 802 10
E 70 818 1
E 70 823 1
E 70 836 9
E 71 72 10
E 71 73 5
E 71 790 1
E 72 74 5
E 72 810 1
E 72 811 2
E 73 74 10
E 73 75 1
E 73 788 1
E 74 76 1
E 74 803 1
E 75 76 10
E 75 786 1
E 76 795 1
E 76 800 1
E 77 651 1
E 77 696 5
E 78 79 1
E 78 706 3
E 78 712 2
E 78 734 4
E 79 719 2
E 79 729 1
E 79 740 4
E 80 603 4
E 80 642 3
E 80 656 5
E 81 656 5
E 81 664 4
E 81 706 2
E 81 712 3
E 82 643 5
E 82 664 2
E 82 706 4
E 82 707 4
E 83 538 2
E 83 543 1
E 83 549 1
E 83 568 5
E 84 85 1
E 84 586 2
E 84 587 2
E 84 623 4
E 85 593 2
E 85 612 1
E 85 627 4
E 86 509 4
E 86 516 2
E 86 539 3
E 86 547 5
E 87 547 5
E 87 551 4
E 87 576 1
E 87 582 2
E 88 541 5
E 88 551 2
E 88 566 1
E 88 583 4
E 89 450 2
E 89 455 1
E 89 481 5
E 89 486 6
E 90 91 1
E 90 491 3
E 90 500 2
E 90 519 4
E 91 505 2
E 91 514 1
E 91 522 4
E 92 432 2
E 92 436 1
E 92 451 3
E 92 459 5
E 93 138 4
E 93 468 2
E 93 475 1
E 93 483 1
E 94 479 2
E 94 483 1
E 94 491 1
E 94 508 4
E 95 372 2
E 95 377 1
E 95 394 5
E 95 398 8
E 96 97 1
E 96 396 3
E 96 399 2
E 96 493 19
E 97 404 2
E 97 419 1
E 97 501 19
E 98 356 1
E 98 357 1
E 98 373 3
E 98 382 5
E 99 100 2
E 99 387 2
E 99 465 19
E 100 392 2
E 100 396 1
E 100 476 19
E 101 141 1
E 101 145 9
E 102 139 1
E 102 142 6
E 102 150 6
E 103 140 1
E 103 145 6
E 103 149 1
E 103 154 6
E 104 142 1
E 104 173 28
E 105 141 9
E 105 145 1
E 105 146 1
E 105 147 5
E 106 538 6
E 106 574 2
E 107 604 5
E 107 605 5
E 107 643 2
E 107 664 5
E 108 450 6
E 108 486 2
E 108 504 5
E 109 510 5
E 109 511 5
E 109 541 2
E 109 551 5
E 110 112 3
E 110 408 1
E 110 413 2
E 111 439 5
E 111 457 1
E 111 463 1
E 111 469 2
E 112 372 8
E 112 398 2
E 113 409 8
E 113 424 5
E 113 453 2
E 113 457 3
E 114 273 20
E 114 331 1
E 114 342 6
E 115 117 10
E 115 344 5
E 115 387 6
E 115 440 21
E 116 279 10
E 116 306 1
E 116 331 10
E 117 118 5
E 117 321 5
E 117 494 43
E 118 119 5
E 118 307 5
E 118 470 43
E 119 120 1
E 119 295 5
E 119 369 21
E 120 121 1
E 120 291 5
E 120 326 7
E 121 123 8
E 121 287 5
E 121 322 7
E 122 223 9
E 122 256 5
E 122 275 9
E 123 259 5
E 123 281 1
E 123 332 19
E 124 162 12
E 125 162 1
E 125 167 3
E 126 644 8
E 126 697 1
E 126 714 2
E 126 725 5
E 127 128 2
E 127 133 1
E 127 339 2
E 127 366 6
E 128 129 1
E 128 347 1
E 128 376 6
E 129 130 1
E 129 134 1
E 129 381 6
E 130 131 1
E 130 135 1
E 130 384 6
E 131 136 1
E 131 386 6
E 132 133 2
E 132 317 8
E 132 339 1
E 133 325 8
E 133 347 2
E 134 135 1
E 134 330 8
E 134 347 1
E 135 136 1
E 135 334 8
E 136 336 8
E 137 513 9
E 137 546 1
E 138 492 1
E 138 520 6
E 139 140 3
E 139 143 6
E 139 151 6
E 140 144 6
E 140 152 6
E 141 160 25
E 142 143 1
E 143 144 3
E 144 145 1
E 146 148 5
E 146 158 12
E 147 149 1
E 147 197 25
E 148 153 5
E 149 156 6
E 149 201 25
E 150 151 1
E 150 164 12
E 151 152 3
E 151 166 12
E 152 154 1
E 152 174 12
E 153 155 1
E 153 175 12
E 154 156 1
E 154 176 12
E 155 157 1
E 156 158 1
E 156 179 12
E 157 159 2
E 158 175 10
E 158 184 12
E 159 163 3
E 159 189 12
E 160 161 1
E 160 168 4
E 161 167 3
E 161 171 4
E 162 170 3
E 163 165 1
E 163 198 12
E 164 166 1
E 165 169 1
E 165 202 12
E 166 172 2
E 166 174 3
E 167 170 1
E 167 178 4
E 168 171 1
E 168 183 5
E 169 183 5
E 169 225 24
E 170 182 4
E 170 261 38
E 171 178 3
E 171 186 5
E 172 177 2
E 172 180 3
E 173 181 3
E 174 176 1
E 174 180 2
E 175 189 4
E 175 208 12
E 176 179 1
E 176 191 4
E 177 187 3
E 177 188 3
E 178 182 1
E 178 193 5
E 179 184 1
E 179 192 4
E 180 187 2
E 180 190 3
E 181 185 1
E 181 206 10
E 182 196 5
E 182 219 17
E 183 186 1
E 183 197 5
E 184 190 2
E 184 208 10
E 185 188 1
E 186 193 3
E 186 200 5
E 187 191 1
E 187 195 3
E 188 195 3
E 188 209 10
E 189 198 3
E 189 212 12
E 190 194 2
E 190 239 24
E 191 192 1
E 191 199 3
E 192 194 1
E 192 203 3
E 193 196 1
E 193 205 5
E 194 247 24
E 195 199 1
E 195 213 10
E 196 207 5
E 196 229 17
E 197 200 1
E 197 201 1
E 198 202 1
E 198 221 12
E 199 203 1
E 199 214 10
E 200 204 1
E 200 205 3
E 201 204 1
E 201 210 6
E 202 210 6
E 202 224 12
E 203 217 10
E 205 207 1
E 205 216 7
E 207 220 7
E 207 241 17
E 208 212 4
E 208 222 7
E 209 213 3
E 209 218 5
E 211 222 5
E 211 230 10
E 212 221 3
E 212 226 7
E 213 214 1
E 214 217 1
E 215 218 1
E 216 220 1
E 216 246 12
E 217 227 5
E 219 223 1
E 219 229 5
E 220 249 12
E 220 262 17
E 221 224 1
E 221 235 7
E 222 226 4
E 222 243 10
E 223 233 5
E 224 225 1
E 224 238 7
E 225 240 7
E 226 235 3
E 226 254 10
E 227 231 1
E 227 234 2
E 228 232 1
E 228 255 10
E 229 233 1
E 229 241 5
E 230 243 5
E 230 244 5
E 231 236 2
E 231 244 5
E 232 234 1
E 232 258 10
E 233 245 5
E 233 256 9
E 234 236 1
E 235 238 1
E 235 264 10
E 236 267 10
E 237 242 2
E 237 246 3
E 238 240 1
E 238 271 10
E 239 242 1
E 239 247 2
E 240 248 2
E 240 276 10
E 241 245 1
E 241 262 7
E 242 250 2
E 242 308 21
E 243 254 4
E 245 270 7
E 245 281 9
E 246 249 1
E 247 250 1
E 247 251 1
E 248 253 3
E 248 283 10
E 249 263 5
E 249 301 17
E 250 252 1
E 251 252 1
E 251 253 2
E 252 257 2
E 252 263 4
E 253 257 1
E 253 288 10
E 254 264 3
E 254 277 5
E 255 258 1
E 256 259 1
E 256 281 5
E 257 292 10
E 259 287 8
E 260 265 1
E 260 272 2
E 261 268 1
E 261 269 1
E 262 270 1
E 262 301 12
E 263 323 19
E 264 271 1
E 265 277 2
E 265 278 2
E 266 272 1
E 266 298 10
E 267 285 5
E 268 273 1
E 268 274 1
E 269 274 1
E 269 275 1
E 270 304 12
E 270 322 18
E 271 276 1
E 272 278 1
E 272 300 10
E 273 279 1
E 274 279 1
E 274 280 1
E 275 280 1
E 275 287 5
E 276 283 2
E 276 289 5
E 277 284 2
E 278 302 10
E 279 282 1
E 280 282 1
E 280 291 5
E 281 340 24
E 282 294 5
E 282 295 5
E 283 288 3
E 283 296 5
E 284 286 2
E 285 298 5
E 286 290 1
E 286 313 10
E 287 291 1
E 288 292 1
E 288 309 7
E 289 296 2
E 289 297 2
E 290 293 1
E 290 316 10
E 291 295 1
E 292 312 7
E 292 345 21
E 293 297 1
E 293 319 10
E 294 306 5
E 294 307 5
E 295 307 5
E 296 299 2
E 296 365 25
E 297 299 2
E 298 300 1
E 298 303 2
E 299 309 3
E 299 328 10
E 300 302 1
E 300 305 2
E 301 304 1
E 301 308 2
E 302 310 2
E 303 305 1
E 304 311 2
E 304 332 10
E 305 310 1
E 305 315 3
E 306 321 5
E 306 335 10
E 307 321 5
E 308 311 1
E 309 312 1
E 309 337 12
E 310 314 2
E 310 317 3
E 311 318 3
E 311 360 18
E 312 323 4
E 312 341 12
E 313 316 1
E 313 320 2
E 314 320 2
E 314 325 3
E 315 317 1
E 316 319 1
E 316 324 2
E 317 325 2
E 318 340 9
E 319 327 2
E 320 324 1
E 321 344 10
E 322 326 1
E 322 352 12
E 323 375 17
E 324 327 1
E 324 330 3
E 326 358 12
E 327 329 1
E 327 334 3
E 328 333 2
E 328 403 25
E 329 333 2
E 329 336 3
E 330 334 1
E 331 335 1
E 331 356 9
E 332 343 5
E 332 352 8
E 333 337 3
E 333 338 3
E 334 336 1
E 335 344 5
E 335 349 6
E 336 338 2
E 337 341 1
E 337 346 3
E 338 346 3
E 339 359 6
E 340 343 1
E 340 385 12
E 341 350 3
E 341 354 4
E 342 348 2
E 342 349 2
E 343 361 5
E 343 388 12
E 344 368 6
E 345 365 5
E 346 350 1
E 348 351 1
E 348 357 2
E 349 357 2
E 349 368 5
E 350 427 21
E 351 356 1
E 351 362 3
E 352 358 1
E 352 360 2
E 353 370 4
E 353 401 15
E 354 412 17
E 355 359 1
E 357 378 5
E 358 363 2
E 359 366 2
E 360 363 1
E 360 374 3
E 361 364 1
E 361 397 12
E 362 367 1
E 362 373 2
E 363 369 1
E 363 379 3
E 364 374 2
E 364 400 12
E 365 370 1
E 365 375 2
E 366 371 1
E 366 376 2
E 367 372 1
E 367 377 2
E 368 378 2
E 368 387 5
E 369 383 3
E 369 440 20
E 370 380 2
E 370 422 15
E 373 377 1
E 373 389 5
E 374 379 1
E 374 410 12
E 375 380 1
E 375 403 10
E 376 381 1
E 377 391 5
E 378 382 1
E 378 392 5
E 379 383 1
E 379 414 12
E 380 393 5
E 380 402 9
E 381 384 1
E 382 389 3
E 382 395 5
E 383 420 12
E 384 386 1
E 385 388 1
E 386 390 2
E 387 392 2
E 388 397 5
E 388 406 7
E 389 391 1
E 389 399 5
E 390 490 25
E 391 394 1
E 391 404 5
E 392 395 1
E 393 407 5
E 393 449 15
E 394 409 5
E 394 424 8
E 395 396 2
E 395 399 3
E 396 581 41
E 397 400 1
E 397 401 1
E 398 413 3
E 398 424 5
E 399 404 1
E 400 405 1
E 400 410 2
E 401 405 1
E 401 422 4
E 402 406 1
E 403 407 1
E 403 412 2
E 404 409 1
E 405 415 2
E 405 426 4
E 406 430 5
E 407 411 1
E 407 472 15
E 408 417 2
E 408 418 2
E 409 419 2
E 410 414 1
E 410 415 1
E 411 416 1
E 411 496 19
E 412 416 1
E 412 427 3
E 413 418 1
E 413 437 5
E 414 420 1
E 414 421 1
E 415 421 1
E 415 434 4
E 416 431 3
E 416 480 15
E 417 428 2
E 417 429 2
E 418 423 1
E 418 439 5
E 419 453 8
E 420 425 1
E 420 634 46
E 421 425 1
E 421 438 4
E 422 426 1
E 422 430 2
E 423 429 1
E 423 444 5
E 424 437 3
E 425 441 4
E 425 640 46
E 426 434 2
E 426 435 2
E 427 431 1
E 427 458 8
E 428 432 1
E 428 436 2
E 429 433 1
E 429 447 5
E 430 435 1
E 430 449 5
E 431 461 8
E 431 498 15
E 432 443 3
E 433 436 1
E 433 452 5
E 434 438 1
E 434 442 2
E 435 442 2
E 435 454 5
E 436 456 5
E 437 439 1
E 437 457 5
E 438 441 1
E 438 445 2
E 439 444 1
E 440 465 6
E 440 536 22
E 441 448 2
E 441 670 46
E 442 445 1
E 442 460 5
E 443 446 1
E 443 451 2
E 444 447 1
E 444 463 5
E 445 448 1
E 445 466 5
E 446 450 1
E 446 455 2
E 447 452 1
E 447 468 5
E 448 470 5
E 448 471 5
E 449 454 1
E 449 472 5
E 451 455 1
E 451 473 5
E 452 456 1
E 452 474 5
E 453 464 3
E 453 655 41
E 454 460 2
E 454 477 5
E 455 478 5
E 456 459 1
E 456 479 5
E 457 464 2
E 458 461 1
E 458 462 1
E 459 473 3
E 459 482 5
E 460 466 1
E 460 484 5
E 461 467 1
E 461 525 15
E 462 467 1
E 462 490 6
E 463 468 1
E 463 475 2
E 464 469 1
E 465 476 2
E 465 563 22
E 466 471 1
E 466 489 5
E 467 499 6
E 468 474 1
E 469 475 1
E 469 488 4
E 470 494 5
E 471 495 5
E 471 718 46
E 472 477 1
E 472 480 2
E 473 478 1
E 473 500 5
E 474 479 1
E 474 483 2
E 475 492 4
E 476 493 4
E 476 573 22
E 477 484 2
E 477 485 2
E 478 481 1
E 478 505 5
E 479 482 1
E 480 485 1
E 480 498 3
E 481 487 1
E 481 507 5
E 482 491 2
E 482 500 3
E 484 489 1
E 484 497 2
E 485 497 2
E 486 509 5
E 486 510 5
E 487 510 5
E 487 511 5
E 488 492 1
E 489 495 1
E 489 496 1
E 490 499 1
E 491 512 4
E 492 518 6
E 493 501 1
E 493 598 22
E 494 536 10
E 495 502 1
E 495 733 46
E 496 502 1
E 496 503 1
E 497 503 1
E 498 525 8
E 499 557 15
E 500 505 1
E 501 602 22
E 502 506 1
E 502 738 46
E 503 506 1
E 503 513 3
E 504 509 2
E 504 516 4
E 505 507 1
E 506 515 3
E 506 521 5
E 507 511 1
E 507 514 2
E 508 512 1
E 509 527 5
E 510 527 5
E 511 517 2
E 512 519 3
E 512 535 6
E 513 515 1
E 514 517 1
E 514 528 4
E 516 526 3
E 517 533 4
E 517 541 5
E 518 520 1
E 519 522 1
E 519 523 1
E 520 524 1
E 520 562 9
E 521 545 5
E 522 528 1
E 522 529 1
E 523 529 1
E 523 548 5
E 525 530 1
E 526 531 1
E 526 539 2
E 527 532 1
E 527 551 5
E 528 533 1
E 528 534 1
E 529 534 1
E 529 552 5
E 530 537 1
E 530 542 2
E 531 538 1
E 531 543 2
E 532 540 1
E 533 554 5
E 533 560 6
E 534 555 5
E 534 559 6
E 535 548 3
E 535 580 9
E 536 563 6
E 537 546 2
E 537 564 6
E 539 543 1
E 539 558 5
E 540 547 2
E 541 554 4
E 542 546 1
E 543 565 5
E 544 553 2
E 544 561 4
E 545 599 10
E 547 550 1
E 548 552 1
E 548 561 3
E 549 574 5
E 549 575 5
E 550 558 2
E 550 576 5
E 552 555 1
E 552 567 3
E 553 556 1
E 553 571 4
E 554 559 1
E 554 583 5
E 555 560 1
E 555 570 3
E 556 572 3
E 556 579 4
E 557 564 1
E 558 565 1
E 558 586 5
E 559 589 5
E 559 590 5
E 560 577 3
E 560 590 5
E 561 567 1
E 561 571 2
E 562 622 10
E 563 573 2
E 563 630 12
E 565 568 1
E 565 593 5
E 566 569 1
E 566 588 4
E 567 570 1
E 567 578 2
E 568 575 1
E 568 600 5
E 569 582 2
E 569 594 4
E 570 577 1
E 570 584 2
E 571 578 1
E 571 579 1
E 572 580 1
E 572 629 10
E 573 581 1
E 573 641 12
E 574 603 5
E 574 604 5
E 575 604 5
E 575 605 5
E 576 586 2
E 576 587 2
E 577 591 2
E 577 607 5
E 578 584 1
E 578 585 1
E 579 585 1
E 579 597 3
E 580 597 3
E 580 717 22
E 581 598 3
E 582 587 1
E 582 606 4
E 583 588 1
E 583 589 1
E 584 591 1
E 584 592 1
E 585 592 1
E 585 601 3
E 586 593 1
E 587 613 4
E 588 594 1
E 588 595 1
E 589 595 1
E 589 619 5
E 590 607 3
E 590 619 5
E 591 596 1
E 591 620 5
E 592 596 1
E 592 608 3
E 593 600 1
E 594 606 2
E 594 628 6
E 595 614 3
E 595 624 5
E 596 615 3
E 596 625 5
E 597 601 1
E 597 726 22
E 598 602 1
E 598 671 12
E 599 630 6
E 600 605 1
E 600 612 2
E 601 608 1
E 601 609 1
E 602 611 1
E 602 678 12
E 603 631 5
E 604 631 5
E 605 618 2
E 606 613 1
E 606 614 1
E 607 620 2
E 607 633 5
E 608 615 1
E 608 616 1
E 609 616 1
E 609 661 9
E 610 617 1
E 610 634 5
E 611 655 8
E 612 618 1
E 612 632 4
E 613 623 2
E 613 645 6
E 614 636 5
E 614 644 6
E 615 621 1
E 615 638 5
E 616 621 1
E 616 668 9
E 617 622 1
E 617 639 5
E 618 635 4
E 618 643 5
E 619 624 1
E 619 633 3
E 620 625 1
E 620 647 5
E 621 648 5
E 621 675 9
E 622 626 1
E 622 686 10
E 623 627 1
E 623 657 6
E 624 628 1
E 624 637 3
E 625 638 3
E 625 653 5
E 626 629 1
E 626 654 5
E 627 632 1
E 627 665 6
E 628 636 2
E 628 646 3
E 629 661 5
E 629 662 5
E 630 641 2
E 631 656 4
E 631 664 5
E 632 635 1
E 632 697 9
E 633 637 1
E 633 647 2
E 634 639 1
E 634 640 1
E 635 644 1
E 635 672 5
E 636 645 1
E 636 658 3
E 637 646 1
E 637 652 2
E 638 648 1
E 638 674 5
E 639 649 1
E 639 654 2
E 640 649 1
E 640 670 4
E 641 650 1
E 642 651 1
E 642 679 5
E 643 672 4
E 644 680 5
E 645 657 2
E 645 666 3
E 646 658 2
E 646 659 2
E 647 652 1
E 647 653 1
E 648 685 5
E 649 663 2
E 649 676 4
E 650 671 3
E 651 689 5
E 652 659 1
E 652 660 1
E 653 660 1
E 653 674 3
E 654 662 1
E 654 663 1
E 655 677 3
E 656 679 3
E 657 665 1
E 657 681 3
E 658 666 1
E 658 673 2
E 659 667 1
E 659 673 2
E 660 667 1
E 660 684 3
E 661 668 1
E 661 699 5
E 662 669 1
E 662 699 5
E 663 669 1
E 663 694 4
E 665 690 3
E 666 681 2
E 666 682 2
E 667 683 2
E 667 692 3
E 668 675 1
E 668 703 5
E 669 700 4
E 669 704 5
E 670 676 1
E 670 687 2
E 671 678 1
E 672 680 1
E 672 707 5
E 673 682 1
E 673 683 1
E 674 684 1
E 674 685 1
E 675 709 5
E 676 686 1
E 676 695 2
E 677 687 1
E 678 688 1
E 679 689 1
E 679 712 5
E 680 713 5
E 680 725 8
E 681 690 1
E 682 691 1
E 682 714 5
E 683 691 1
E 683 702 3
E 684 692 1
E 684 693 1
E 685 693 1
E 686 694 1
E 686 701 2
E 687 695 1
E 687 718 5
E 688 728 8
E 689 696 1
E 689 719 5
E 690 697 1
E 691 708 3
E 691 720 5
E 692 698 1
E 692 702 2
E 693 698 1
E 694 700 1
E 694 705 2
E 695 701 1
E 695 721 5
E 696 722 5
E 696 772 31
E 698 735 9
E 699 703 1
E 699 704 1
E 700 711 2
E 701 705 1
E 701 723 5
E 702 708 1
E 703 709 1
E 703 710 1
E 704 710 1
E 704 731 6
E 705 711 1
E 705 727 5
E 706 724 4
E 707 713 1
E 707 724 4
E 708 715 1
E 709 716 1
E 709 755 11
E 710 716 1
E 711 717 1
E 711 732 5
E 712 719 1
E 713 730 4
E 713 747 8
E 714 720 1
E 714 795 50
E 716 736 6
E 716 759 11
E 717 726 3
E 718 721 1
E 718 733 5
E 719 722 1
E 721 723 1
E 721 737 5
E 722 729 2
E 723 727 1
E 723 742 5
E 724 730 1
E 724 734 3
E 725 747 5
E 726 731 1
E 727 732 1
E 727 749 5
E 728 739 3
E 729 745 4
E 730 741 3
E 730 761 8
E 732 752 5
E 733 737 1
E 733 738 1
E 734 740 1
E 734 741 1
E 735 748 2
E 737 742 1
E 737 743 1
E 738 743 1
E 738 744 1
E 739 744 1
E 740 745 1
E 740 746 1
E 741 746 1
E 741 763 8
E 742 749 1
E 742 754 2
E 743 750 1
E 743 753 2
E 744 750 1
E 745 751 1
E 745 784 31
E 746 751 1
E 746 766 8
E 747 761 4
E 749 752 1
E 749 753 1
E 750 754 1
E 751 768 8
E 752 757 1
E 753 757 1
E 753 758 1
E 754 758 1
E 755 759 1
E 757 760 1
E 757 764 5
E 758 760 1
E 759 775 18
E 760 762 1
E 761 763 3
E 762 765 3
E 763 766 1
E 763 805 40
E 764 767 1
E 765 767 1
E 766 768 1
E 766 807 40
E 767 769 1
E 768 795 33
E 769 770 1
E 770 771 5
E 771 773 5
E 772 774 1
E 772 784 11
E 773 775 1
E 774 776 1
E 774 786 11
E 775 777 1
E 776 780 5
E 776 788 11
E 777 778 2
E 778 779 1
E 779 783 5
E 780 781 2
E 780 790 11
E 781 782 1
E 782 785 2
E 783 789 5
E 784 786 1
E 785 787 1
E 785 797 11
E 786 788 1
E 787 794 9
E 787 799 11
E 788 790 5
E 789 792 5
E 790 791 2
E 791 793 1
E 792 801 4
E 793 797 2
E 794 796 1
E 794 814 11
E 796 798 1
E 796 816 11
E 797 799 1
E 798 804 3
E 799 802 1
E 799 814 9
E 800 803 1
E 800 859 37
E 801 805 3
E 802 817 9
E 803 810 5
E 803 860 37
E 804 806 1
E 804 825 11
E 805 807 1
E 806 808 1
E 807 809 1
E 809 858 31
E 810 813 2
E 810 861 37
E 811 812 1
E 811 813 1
E 812 815 1
E 812 818 2
E 813 815 1
E 813 828 7
E 814 816 1
E 814 817 1
E 815 821 2
E 815 830 7
E 816 819 1
E 816 820 1
E 817 820 1
E 817 836 10
E 818 821 1
E 819 822 1
E 819 825 3
E 820 822 1
E 820 838 10
E 821 823 1
E 821 824 2
E 822 827 3
E 822 839 10
E 823 826 2
E 824 826 1
E 824 833 5
E 825 827 1
E 826 834 5
E 826 840 9
E 827 829 1
E 827 842 10
E 828 830 1
E 828 831 1
E 829 844 10
E 830 832 1
E 830 833 2
E 831 832 1
E 831 845 10
E 832 835 2
E 832 846 10
E 833 834 1
E 833 835 1
E 834 837 1
E 835 837 1
E 835 850 10
E 836 838 1
E 836 840 3
E 837 849 9
E 837 852 10
E 838 839 1
E 838 841 3
E 839 842 3
E 839 843 3
E 840 841 1
E 841 843 1
E 841 848 5
E 842 844 1
E 843 851 5
E 844 847 3
E 845 846 1
E 845 864 19
E 846 850 2
E 846 865 19
E 847 854 5
E 848 851 1
E 850 852 1
E 850 866 19
E 851 853 3
E 852 868 19
E 853 854 1
E 853 855 1
E 854 856 1
E 854 857 1
E 855 857 1
E 855 862 10
E 857 863 10
E 858 859 1
E 859 860 1
E 860 861 5
E 861 864 2
E 862 863 1
E 864 865 1
E 864 867 3
E 865 866 2
E 866 868 1
E 868 869 3
E 868 870 9
E 870 872 1
E 871 874 2
E 872 873 1
E 873 875 3
E 875 876 1
E 876 877 1
E 1 878 100000
E 2 878 100000
E 3 878 100000
E 4 878 100000
E 5 879 100000
E 6 879 100000
E 7 879 100000
E 8 879 100000
E 9 879 100000
E 10 880 100000
E 11 880 100000
E 12 880 100000
E 13 880 100000
E 14 880 100000
E 15 881 100000
E 16 881 100000
E 17 881 100000
E 18 881 100000
E 19 881 100000
E 20 882 100000
E 21 882 100000
E 22 883 100000
E 23 883 100000
E 24 883 100000
E 25 883 100000
E 26 884 100000
E 27 884 100000
E 28 884 100000
E 29 885 100000
E 30 885 100000
E 31 885 100000
E 32 886 100000
E 33 886 100000
E 34 886 100000
E 35 887 100000
E 36 887 100000
E 37 887 100000
E 38 888 100000
E 39 888 100000
E 40 888 100000
E 41 888 100000
E 42 888 100000
E 43 889 100000
E 44 889 100000
E 45 890 100000
E 46 890 100000
E 47 891 100000
E 48 891 100000
E 49 892 100000
E 50 892 100000
E 51 893 100000
E 52 893 100000
E 53 894 100000
E 54 894 100000
E 55 895 100000
E 56 895 100000
E 57 896 100000
E 58 896 100000
E 59 896 100000
E 60 896 100000
E 61 896 100000
E 62 897 100000
E 63 897 100000
E 64 897 100000
E 65 898 100000
E 66 898 100000
E 67 899 100000
E 68 899 100000
E 69 900 100000
E 70 900 100000
E 71 901 100000
E 72 901 100000
E 73 902 100000
E 74 902 100000
E 75 903 100000
E 76 903 100000
E 77 904 100000
E 78 904 100000
E 79 904 100000
E 80 905 100000
E 81 905 100000
E 82 905 100000
E 83 906 100000
E 84 906 100000
E 85 906 100000
E 86 907 100000
E 87 907 100000
E 88 907 100000
E 89 908 100000
E 90 908 100000
E 91 908 100000
E 92 909 100000
E 93 909 100000
E 94 909 100000
E 95 910 100000
E 96 910 100000
E 97 910 100000
E 98 911 100000
E 99 911 100000
E 100 911 100000
E 101 912 100000
E 102 912 100000
E 103 912 100000
E 104 912 100000
E 105 912 100000
E 106 913 100000
E 107 913 100000
E 108 914 100000
E 109 914 100000
E 110 915 100000
E 111 915 100000
E 112 916 100000
E 113 916 100000
E 114 917 100000
E 115 917 100000
E 116 918 100000
E 117 918 100000
E 118 919 100000
E 119 920 100000
E 120 921 100000
E 121 922 100000
E 122 923 100000
E 123 923 100000
E 124 924 100000
E 125 924 100000
E 126 925 100000
E 127 878 100000
E 128 878 100000
E 129 878 100000
E 130 878 100000
E 131 878 100000
E 132 879 100000
E 133 879 100000
E 134 879 100000
E 135 879 100000
E 136 879 100000
E 137 881 100000
E 138 896 100000
E 139 912 100000
E 140 912 100000
END 

SECTION Terminals 
Terminals 48
TP 878 902
TP 879 903
TP 880 904
TP 881 905
TP 882 906
TP 883 907
TP 884 908
TP 885 909
TP 886 910
TP 887 911
TP 888 912
TP 889 913
TP 890 914
TP 891 915
TP 892 916
TP 893 917
TP 894 918
TP 895 919
TP 896 920
TP 897 921
TP 898 922
TP 899 923
TP 900 924
TP 901 925
END 
